DIMACS2
20 194 265 2 63 298 286 278 259 71 135 250 281 306 261 144 108 224 31 25 228
p edge 320 2532
e 0 276 1.0
e 0 232 1.0
e 0 92 1.0
e 0 315 2.0
e 0 284 1.0
e 0 51 2.0
e 0 245 2.0
e 0 227 1.0
e 1 301 1.0
e 1 104 1.0
e 1 77 1.0
e 1 112 1.0
e 1 255 1.0
e 1 222 1.0
e 1 95 1.0
e 1 209 1.0
e 2 67 41.0
e 2 181 21.0
e 2 118 45.0
e 2 56 39.0
e 2 109 41.0
e 2 241 22.0
e 2 6 15.0
e 2 189 16.0
e 3 139 1.0
e 3 289 1.0
e 3 99 2.0
e 3 25 1.0
e 3 38 1.0
e 3 224 44.0
e 3 4 2.0
e 3 220 1.0
e 4 280 1.0
e 4 107 1.0
e 4 88 2.0
e 4 118 1.0
e 4 264 1.0
e 4 122 1.0
e 4 150 1.0
e 4 80 2.0
e 5 255 1.0
e 5 90 2.0
e 5 54 1.0
e 5 78 1.0
e 5 76 1.0
e 5 10 2.0
e 5 103 1.0
e 5 124 1.0
e 6 205 1.0
e 6 157 1.0
e 6 105 1.0
e 6 223 1.0
e 6 175 1.0
e 6 33 1.0
e 6 284 2.0
e 6 43 1.0
e 7 16 1.0
e 7 266 1.0
e 7 301 1.0
e 7 197 1.0
e 7 78 1.0
e 7 177 3.0
e 7 200 1.0
e 7 1 1.0
e 8 31 36.0
e 8 61 1.0
e 8 135 33.0
e 8 7 1.0
e 8 292 1.0
e 8 143 1.0
e 8 238 2.0
e 8 78 1.0
e 9 235 1.0
e 9 220 2.0
e 9 143 2.0
e 9 51 1.0
e 9 50 1.0
e 9 252 2.0
e 9 18 1.0
e 9 271 2.0
e 10 306 39.0
e 10 173 1.0
e 10 250 43.0
e 10 245 1.0
e 10 48 1.0
e 10 169 1.0
e 10 267 2.0
e 10 308 1.0
e 11 24 1.0
e 11 42 1.0
e 11 254 1.0
e 11 37 2.0
e 11 147 1.0
e 11 83 1.0
e 11 174 1.0
e 11 60 2.0
e 12 14 2.0
e 12 114 1.0
e 12 76 2.0
e 12 48 1.0
e 12 132 1.0
e 12 308 2.0
e 12 70 1.0
e 12 247 1.0
e 13 286 5.0
e 13 83 1.0
e 13 162 1.0
e 13 288 1.0
e 13 284 1.0
e 13 161 1.0
e 13 277 1.0
e 13 22 1.0
e 14 220 2.0
e 14 255 1.0
e 14 60 2.0
e 14 228 36.0
e 14 210 1.0
e 14 119 2.0
e 14 184 2.0
e 14 176 1.0
e 15 294 2.0
e 15 12 1.0
e 15 37 1.0
e 15 244 2.0
e 15 111 2.0
e 15 204 1.0
e 15 278 36.0
e 15 277 1.0
e 16 68 1.0
e 16 272 1.0
e 16 93 1.0
e 16 86 1.0
e 16 298 32.0
e 16 125 2.0
e 16 237 2.0
e 16 289 1.0
e 17 40 1.0
e 17 178 1.0
e 17 258 1.0
e 17 216 2.0
e 17 100 1.0
e 17 56 2.0
e 17 60 1.0
e 17 236 1.0
e 18 203 2.0
e 18 164 2.0
e 18 3 1.0
e 18 207 1.0
e 18 82 2.0
e 18 185 1.0
e 18 126 1.0
e 18 88 1.0
e 19 181 1.0
e 19 8 1.0
e 19 279 2.0
e 19 254 1.0
e 19 250 43.0
e 19 105 1.0
e 19 31 10.0
e 19 317 2.0
e 20 271 1.0
e 20 133 1.0
e 20 16 1.0
e 20 24 1.0
e 20 291 1.0
e 20 202 1.0
e 20 140 2.0
e 20 64 2.0
e 21 152 2.0
e 21 77 1.0
e 21 107 2.0
e 21 216 2.0
e 21 296 1.0
e 21 100 2.0
e 21 11 1.0
e 22 52 1.0
e 22 134 1.0
e 22 36 1.0
e 22 292 1.0
e 22 245 2.0
e 22 19 1.0
e 22 195 1.0
e 22 98 1.0
e 23 10 1.0
e 23 58 1.0
e 23 238 1.0
e 23 130 1.0
e 23 214 1.0
e 23 65 1.0
e 23 75 1.0
e 23 237 2.0
e 24 7 1.0
e 24 59 1.0
e 24 33 1.0
e 24 303 1.0
e 24 8 1.0
e 24 207 1.0
e 24 301 1.0
e 24 256 1.0
e 25 297 1.0
e 25 2 36.0
e 25 106 18.0
e 25 34 39.0
e 25 280 37.0
e 25 70 10.0
e 25 54 6.0
e 25 37 34.0
e 26 105 1.0
e 26 294 1.0
e 26 238 2.0
e 26 263 1.0
e 26 151 1.0
e 26 312 1.0
e 26 59 1.0
e 26 3 1.0
e 27 123 1.0
e 27 278 23.0
e 27 94 1.0
e 27 318 2.0
e 27 271 2.0
e 27 254 1.0
e 27 310 2.0
e 27 42 1.0
e 28 60 1.0
e 28 38 1.0
e 28 282 1.0
e 28 218 1.0
e 28 31 10.0
e 28 59 1.0
e 28 298 40.0
e 28 57 1.0
e 29 193 1.0
e 29 26 1.0
e 29 187 1.0
e 29 43 1.0
e 29 220 1.0
e 29 124 2.0
e 29 259 25.0
e 29 291 1.0
e 30 157 1.0
e 30 73 3.0
e 30 304 1.0
e 30 242 3.0
e 30 114 1.0
e 30 232 1.0
e 30 154 1.0
e 30 282 1.0
e 31 265 41.0
e 31 70 31.0
e 31 109 37.0
e 31 104 46.0
e 31 198 45.0
e 31 205 6.0
e 31 97 18.0
e 32 216 3.0
e 32 8 1.0
e 32 230 1.0
e 32 253 2.0
e 32 67 3.0
e 32 155 2.0
e 32 161 1.0
e 32 159 2.0
e 33 169 1.0
e 33 137 1.0
e 33 78 1.0
e 33 11 1.0
e 33 99 2.0
e 33 156 1.0
e 33 288 1.0
e 33 34 1.0
e 34 232 1.0
e 34 12 1.0
e 34 187 1.0
e 34 67 1.0
e 34 52 1.0
e 34 162 1.0
e 34 63 10.0
e 34 247 1.0
e 35 124 3.0
e 35 298 17.0
e 35 263 1.0
e 35 121 1.0
e 35 218 2.0
e 35 265 15.0
e 35 98 1.0
e 35 46 1.0
e 36 132 2.0
e 36 108 34.0
e 36 242 2.0
e 36 127 1.0
e 36 131 1.0
e 36 58 2.0
e 36 267 2.0
e 36 113 1.0
e 37 283 1.0
e 37 262 1.0
e 37 66 1.0
e 37 51 1.0
e 37 269 2.0
e 37 59 2.0
e 37 188 1.0
e 37 28 2.0
e 38 6 1.0
e 38 65 1.0
e 38 125 2.0
e 38 181 2.0
e 38 276 1.0
e 38 100 1.0
e 38 35 1.0
e 38 188 1.0
e 39 262 1.0
e 39 130 1.0
e 39 267 1.0
e 39 210 1.0
e 39 157 1.0
e 39 131 2.0
e 39 201 2.0
e 39 85 2.0
e 40 173 1.0
e 40 149 1.0
e 40 168 1.0
e 40 5 2.0
e 40 174 1.0
e 40 254 1.0
e 40 128 1.0
e 40 14 1.0
e 41 45 1.0
e 41 309 2.0
e 41 131 1.0
e 41 270 1.0
e 41 283 1.0
e 41 255 1.0
e 41 107 2.0
e 41 61 1.0
e 42 110 1.0
e 42 288 1.0
e 42 15 1.0
e 42 35 1.0
e 42 105 1.0
e 42 32 2.0
e 42 88 1.0
e 42 186 2.0
e 43 315 1.0
e 43 309 1.0
e 43 267 2.0
e 43 212 1.0
e 43 273 2.0
e 43 229 2.0
e 43 261 7.0
e 43 206 1.0
e 44 74 1.0
e 44 190 1.0
e 44 13 1.0
e 44 188 1.0
e 44 118 1.0
e 44 137 1.0
e 44 242 1.0
e 44 288 1.0
e 45 214 1.0
e 45 278 41.0
e 45 298 43.0
e 45 146 1.0
e 45 310 1.0
e 45 277 1.0
e 45 156 1.0
e 45 145 1.0
e 46 49 1.0
e 46 53 2.0
e 46 82 1.0
e 46 42 1.0
e 46 118 1.0
e 46 128 1.0
e 46 259 1.0
e 46 79 1.0
e 47 147 1.0
e 47 51 1.0
e 47 216 1.0
e 47 163 1.0
e 47 210 1.0
e 47 281 46.0
e 47 23 2.0
e 47 318 1.0
e 48 137 1.0
e 48 112 1.0
e 48 177 2.0
e 48 258 1.0
e 48 162 1.0
e 48 237 1.0
e 48 181 2.0
e 48 78 2.0
e 49 302 2.0
e 49 165 2.0
e 49 22 1.0
e 49 216 1.0
e 49 177 1.0
e 49 61 2.0
e 49 196 1.0
e 49 242 1.0
e 50 224 44.0
e 50 278 2.0
e 50 88 1.0
e 50 313 1.0
e 50 54 2.0
e 50 13 1.0
e 50 105 1.0
e 50 106 1.0
e 51 189 1.0
e 51 57 1.0
e 51 200 1.0
e 51 71 5.0
e 51 30 2.0
e 51 33 1.0
e 51 149 2.0
e 51 97 1.0
e 52 165 1.0
e 52 74 1.0
e 52 292 1.0
e 52 239 1.0
e 52 277 2.0
e 52 190 1.0
e 52 56 2.0
e 52 160 1.0
e 53 284 1.0
e 53 101 2.0
e 53 135 10.0
e 53 140 3.0
e 53 142 2.0
e 53 35 1.0
e 53 166 1.0
e 53 37 1.0
e 54 133 2.0
e 54 303 2.0
e 54 97 1.0
e 54 316 2.0
e 54 70 1.0
e 54 165 1.0
e 54 279 2.0
e 54 4 1.0
e 55 25 18.0
e 55 137 2.0
e 55 22 1.0
e 55 79 1.0
e 55 35 1.0
e 55 162 1.0
e 55 95 2.0
e 55 312 1.0
e 56 165 2.0
e 56 42 1.0
e 56 308 1.0
e 56 302 2.0
e 56 76 1.0
e 56 182 2.0
e 56 171 1.0
e 56 102 1.0
e 57 126 1.0
e 57 206 1.0
e 57 16 1.0
e 57 175 1.0
e 57 182 1.0
e 57 89 2.0
e 57 118 1.0
e 57 235 2.0
e 58 102 1.0
e 58 97 1.0
e 58 136 1.0
e 58 291 1.0
e 58 123 1.0
e 58 185 1.0
e 58 213 1.0
e 58 310 1.0
e 59 45 1.0
e 59 308 1.0
e 59 134 1.0
e 59 78 1.0
e 59 75 1.0
e 59 289 1.0
e 59 50 1.0
e 59 211 2.0
e 60 130 1.0
e 60 246 1.0
e 60 100 1.0
e 60 192 1.0
e 60 174 1.0
e 60 34 2.0
e 60 169 1.0
e 60 181 1.0
e 61 166 1.0
e 61 199 1.0
e 61 2 4.0
e 61 30 1.0
e 61 50 1.0
e 61 205 1.0
e 61 204 1.0
e 61 52 1.0
e 62 182 2.0
e 62 315 2.0
e 62 304 2.0
e 62 296 1.0
e 62 118 1.0
e 62 256 1.0
e 62 30 1.0
e 62 4 2.0
e 63 211 2.0
e 63 175 9.0
e 63 46 36.0
e 63 40 38.0
e 63 21 31.0
e 63 284 43.0
e 63 203 41.0
e 63 35 20.0
e 63 2 30.0
e 63 194 15.0
e 63 71 21.0
e 63 108 42.0
e 63 250 11.0
e 64 34 1.0
e 64 125 2.0
e 64 231 1.0
e 64 96 1.0
e 64 79 1.0
e 64 289 1.0
e 64 264 1.0
e 65 229 1.0
e 65 203 1.0
e 65 193 2.0
e 65 116 1.0
e 65 6 1.0
e 65 2 31.0
e 65 304 1.0
e 65 40 1.0
e 66 230 1.0
e 66 45 1.0
e 66 23 2.0
e 66 149 2.0
e 66 85 2.0
e 66 298 5.0
e 66 5 1.0
e 66 126 1.0
e 67 219 1.0
e 67 147 1.0
e 67 315 2.0
e 67 309 1.0
e 67 210 1.0
e 67 44 1.0
e 67 125 1.0
e 68 292 1.0
e 68 206 1.0
e 68 108 21.0
e 68 15 2.0
e 68 93 1.0
e 68 306 43.0
e 68 18 1.0
e 68 256 1.0
e 69 22 1.0
e 69 39 2.0
e 69 5 1.0
e 69 260 1.0
e 69 232 1.0
e 69 100 2.0
e 69 274 1.0
e 69 6 1.0
e 70 317 1.0
e 70 241 2.0
e 70 316 2.0
e 70 272 1.0
e 70 37 1.0
e 70 120 1.0
e 70 267 2.0
e 70 123 1.0
e 71 103 36.0
e 71 148 8.0
e 71 238 22.0
e 71 150 46.0
e 71 278 45.0
e 71 149 15.0
e 71 117 5.0
e 71 67 7.0
e 71 108 1.0
e 72 268 2.0
e 72 18 1.0
e 72 200 1.0
e 72 313 1.0
e 72 70 1.0
e 72 88 1.0
e 72 109 1.0
e 72 38 1.0
e 73 309 2.0
e 73 225 1.0
e 73 72 1.0
e 73 164 1.0
e 73 25 12.0
e 73 103 1.0
e 73 10 2.0
e 73 141 1.0
e 74 121 1.0
e 74 316 1.0
e 74 191 1.0
e 74 119 1.0
e 74 108 15.0
e 74 85 1.0
e 74 9 1.0
e 74 135 41.0
e 75 46 1.0
e 75 52 1.0
e 75 22 1.0
e 75 157 1.0
e 75 246 1.0
e 75 17 1.0
e 75 198 2.0
e 75 253 3.0
e 76 24 2.0
e 76 100 1.0
e 76 8 2.0
e 76 177 1.0
e 76 280 1.0
e 76 2 5.0
e 76 46 1.0
e 76 229 1.0
e 77 313 1.0
e 77 78 3.0
e 77 42 1.0
e 77 92 1.0
e 77 57 1.0
e 77 293 1.0
e 77 135 47.0
e 78 160 1.0
e 78 72 1.0
e 78 161 1.0
e 78 137 2.0
e 78 238 1.0
e 78 138 1.0
e 78 20 2.0
e 78 45 1.0
e 79 28 1.0
e 79 295 1.0
e 79 138 1.0
e 79 176 1.0
e 79 35 1.0
e 79 29 1.0
e 79 117 2.0
e 79 286 33.0
e 80 64 1.0
e 80 53 1.0
e 80 308 1.0
e 80 133 1.0
e 80 2 41.0
e 80 147 1.0
e 80 194 6.0
e 80 81 1.0
e 81 217 2.0
e 81 223 1.0
e 81 281 36.0
e 81 182 1.0
e 81 211 1.0
e 81 202 1.0
e 81 189 1.0
e 81 32 1.0
e 82 16 1.0
e 82 3 1.0
e 82 86 3.0
e 82 179 1.0
e 82 190 1.0
e 82 265 6.0
e 82 203 2.0
e 82 267 1.0
e 83 246 1.0
e 83 48 1.0
e 83 311 1.0
e 83 266 1.0
e 83 0 1.0
e 83 318 1.0
e 83 213 1.0
e 83 49 1.0
e 84 293 2.0
e 84 312 1.0
e 84 25 18.0
e 84 241 2.0
e 84 161 1.0
e 84 14 1.0
e 84 21 1.0
e 84 176 1.0
e 85 75 1.0
e 85 79 1.0
e 85 300 1.0
e 85 179 1.0
e 85 248 1.0
e 85 218 1.0
e 85 48 1.0
e 85 318 1.0
e 86 134 1.0
e 86 4 1.0
e 86 61 1.0
e 86 288 1.0
e 86 132 1.0
e 86 237 2.0
e 86 297 1.0
e 86 191 1.0
e 87 172 2.0
e 87 291 2.0
e 87 248 1.0
e 87 103 1.0
e 87 28 2.0
e 87 278 7.0
e 87 11 1.0
e 87 101 2.0
e 88 142 1.0
e 88 29 1.0
e 88 166 1.0
e 88 22 1.0
e 88 61 1.0
e 88 11 1.0
e 88 168 1.0
e 88 199 2.0
e 89 266 1.0
e 89 314 1.0
e 89 8 2.0
e 89 293 3.0
e 89 55 1.0
e 89 154 2.0
e 89 96 2.0
e 89 22 1.0
e 90 74 1.0
e 90 207 1.0
e 90 161 1.0
e 90 51 1.0
e 90 231 1.0
e 90 311 1.0
e 90 254 1.0
e 91 4 1.0
e 91 206 1.0
e 91 151 1.0
e 91 216 1.0
e 91 116 1.0
e 91 60 2.0
e 91 208 1.0
e 92 166 1.0
e 92 3 1.0
e 92 126 3.0
e 92 12 1.0
e 92 34 2.0
e 92 179 1.0
e 92 75 1.0
e 92 262 2.0
e 93 257 2.0
e 93 277 1.0
e 93 226 1.0
e 93 15 2.0
e 93 132 1.0
e 93 65 1.0
e 93 189 1.0
e 93 198 1.0
e 94 268 3.0
e 94 211 1.0
e 94 70 1.0
e 94 106 1.0
e 94 282 2.0
e 94 272 1.0
e 94 273 1.0
e 94 251 1.0
e 95 313 1.0
e 95 32 2.0
e 95 252 1.0
e 95 68 2.0
e 95 238 2.0
e 95 265 28.0
e 95 223 2.0
e 95 304 1.0
e 96 315 1.0
e 96 303 1.0
e 96 30 1.0
e 96 131 1.0
e 96 196 1.0
e 96 260 1.0
e 96 317 3.0
e 96 103 1.0
e 97 150 1.0
e 97 231 1.0
e 97 149 1.0
e 97 298 13.0
e 97 32 1.0
e 97 9 1.0
e 97 133 1.0
e 97 48 1.0
e 98 11 1.0
e 98 217 1.0
e 98 38 1.0
e 98 41 1.0
e 98 259 4.0
e 98 59 1.0
e 98 196 1.0
e 98 253 2.0
e 99 309 1.0
e 99 170 2.0
e 99 233 1.0
e 99 178 3.0
e 99 318 1.0
e 99 103 1.0
e 99 173 1.0
e 100 180 1.0
e 100 291 1.0
e 100 225 2.0
e 100 31 25.0
e 100 43 1.0
e 100 9 2.0
e 100 230 2.0
e 101 128 1.0
e 101 251 1.0
e 101 300 1.0
e 101 179 1.0
e 101 104 1.0
e 101 100 2.0
e 101 190 1.0
e 101 156 1.0
e 102 20 2.0
e 102 159 1.0
e 102 316 1.0
e 102 113 2.0
e 102 312 1.0
e 102 50 1.0
e 102 180 1.0
e 103 160 1.0
e 103 243 2.0
e 103 256 2.0
e 103 137 1.0
e 103 30 1.0
e 103 56 1.0
e 103 33 1.0
e 103 215 2.0
e 104 275 1.0
e 104 287 1.0
e 104 187 1.0
e 104 41 1.0
e 104 216 1.0
e 104 306 30.0
e 104 76 1.0
e 104 259 13.0
e 105 164 2.0
e 105 121 1.0
e 105 98 1.0
e 105 311 1.0
e 105 41 1.0
e 105 304 1.0
e 105 198 2.0
e 105 119 1.0
e 106 57 1.0
e 106 100 2.0
e 106 143 1.0
e 106 75 1.0
e 106 124 2.0
e 106 55 1.0
e 106 289 1.0
e 107 235 2.0
e 107 128 2.0
e 107 210 1.0
e 107 192 3.0
e 107 254 1.0
e 107 190 1.0
e 107 279 1.0
e 107 245 1.0
e 108 306 46.0
e 108 194 5.0
e 108 32 14.0
e 108 4 41.0
e 108 229 3.0
e 108 49 26.0
e 108 173 22.0
e 108 55 26.0
e 109 122 2.0
e 109 204 1.0
e 109 83 1.0
e 109 3 1.0
e 109 55 1.0
e 109 280 1.0
e 109 309 1.0
e 110 200 2.0
e 110 109 1.0
e 110 245 2.0
e 110 308 1.0
e 110 208 2.0
e 110 167 1.0
e 110 263 1.0
e 110 96 1.0
e 111 103 1.0
e 111 231 1.0
e 111 276 1.0
e 111 197 1.0
e 111 282 2.0
e 111 307 1.0
e 111 13 1.0
e 111 101 2.0
e 112 203 1.0
e 112 128 1.0
e 112 3 1.0
e 112 264 1.0
e 112 224 23.0
e 112 244 2.0
e 112 12 2.0
e 112 15 1.0
e 113 229 2.0
e 113 159 2.0
e 113 30 1.0
e 113 16 1.0
e 113 31 46.0
e 113 65 1.0
e 113 29 1.0
e 113 38 2.0
e 114 113 1.0
e 114 8 1.0
e 114 302 1.0
e 114 205 1.0
e 114 158 1.0
e 114 18 1.0
e 114 25 7.0
e 114 221 1.0
e 115 188 1.0
e 115 220 1.0
e 115 234 1.0
e 115 223 1.0
e 115 279 1.0
e 115 11 1.0
e 115 134 1.0
e 115 101 1.0
e 116 122 1.0
e 116 30 1.0
e 116 317 1.0
e 116 113 1.0
e 116 170 1.0
e 116 162 1.0
e 116 95 1.0
e 116 12 2.0
e 117 143 1.0
e 117 26 1.0
e 117 121 1.0
e 117 53 1.0
e 117 115 1.0
e 117 8 2.0
e 117 12 1.0
e 117 295 3.0
e 118 238 1.0
e 118 227 1.0
e 118 232 1.0
e 118 190 1.0
e 118 255 1.0
e 118 261 41.0
e 118 113 1.0
e 119 309 2.0
e 119 113 1.0
e 119 222 1.0
e 119 8 1.0
e 119 173 2.0
e 119 264 1.0
e 119 318 1.0
e 120 152 2.0
e 120 208 1.0
e 120 57 1.0
e 120 219 1.0
e 120 311 1.0
e 120 177 1.0
e 120 96 1.0
e 120 33 1.0
e 121 184 2.0
e 121 6 2.0
e 121 141 1.0
e 121 308 1.0
e 121 41 1.0
e 121 106 1.0
e 121 264 1.0
e 121 89 2.0
e 122 198 1.0
e 122 57 1.0
e 122 134 1.0
e 122 294 1.0
e 122 143 1.0
e 122 160 1.0
e 122 200 2.0
e 123 140 2.0
e 123 306 12.0
e 123 173 2.0
e 123 170 3.0
e 123 92 1.0
e 123 49 1.0
e 123 177 1.0
e 123 159 1.0
e 124 233 1.0
e 124 145 2.0
e 124 45 1.0
e 124 261 15.0
e 124 62 2.0
e 124 315 2.0
e 124 219 2.0
e 124 316 1.0
e 125 57 1.0
e 125 137 1.0
e 125 22 1.0
e 125 211 1.0
e 125 76 1.0
e 125 46 1.0
e 125 270 1.0
e 125 287 2.0
e 126 161 1.0
e 126 98 1.0
e 126 184 1.0
e 126 166 1.0
e 126 6 1.0
e 126 158 2.0
e 126 55 1.0
e 126 302 2.0
e 127 38 1.0
e 127 236 1.0
e 127 207 1.0
e 127 205 1.0
e 127 28 1.0
e 127 59 1.0
e 127 166 1.0
e 127 41 1.0
e 128 257 2.0
e 128 226 1.0
e 128 270 1.0
e 128 231 1.0
e 128 187 2.0
e 128 36 1.0
e 128 31 23.0
e 128 310 1.0
e 129 156 1.0
e 129 121 1.0
e 129 12 1.0
e 129 163 1.0
e 129 217 1.0
e 129 307 1.0
e 129 140 1.0
e 129 248 1.0
e 130 303 1.0
e 130 91 2.0
e 130 36 1.0
e 130 85 1.0
e 130 219 1.0
e 130 239 1.0
e 130 173 2.0
e 130 22 2.0
e 131 21 2.0
e 131 14 1.0
e 131 42 1.0
e 131 275 1.0
e 131 221 1.0
e 131 255 1.0
e 131 149 1.0
e 131 22 2.0
e 132 141 1.0
e 132 240 1.0
e 132 196 1.0
e 132 53 1.0
e 132 136 1.0
e 132 57 1.0
e 132 215 1.0
e 132 133 1.0
e 133 288 3.0
e 133 205 1.0
e 133 79 1.0
e 133 73 2.0
e 133 189 1.0
e 133 110 1.0
e 133 219 1.0
e 133 267 1.0
e 134 228 16.0
e 134 246 1.0
e 134 192 1.0
e 134 2 11.0
e 134 128 1.0
e 134 219 1.0
e 134 7 1.0
e 134 130 1.0
e 135 253 19.0
e 135 9 32.0
e 135 143 8.0
e 135 106 38.0
e 135 3 14.0
e 135 39 27.0
e 135 125 11.0
e 136 301 1.0
e 136 24 1.0
e 136 80 1.0
e 136 274 1.0
e 136 103 1.0
e 136 286 16.0
e 136 140 1.0
e 136 102 1.0
e 137 23 2.0
e 137 309 2.0
e 137 186 1.0
e 137 51 1.0
e 137 296 1.0
e 137 60 2.0
e 138 169 1.0
e 138 188 1.0
e 138 218 1.0
e 138 77 1.0
e 138 196 2.0
e 138 137 1.0
e 138 163 1.0
e 138 210 1.0
e 139 168 1.0
e 139 50 1.0
e 139 117 2.0
e 139 20 1.0
e 139 48 1.0
e 139 98 1.0
e 139 296 1.0
e 139 104 1.0
e 140 33 1.0
e 140 294 1.0
e 140 243 1.0
e 140 316 1.0
e 140 310 1.0
e 140 199 2.0
e 140 85 1.0
e 140 286 28.0
e 141 310 1.0
e 141 240 1.0
e 141 227 1.0
e 141 0 1.0
e 141 259 24.0
e 141 282 1.0
e 141 33 1.0
e 142 168 1.0
e 142 25 38.0
e 142 110 1.0
e 142 70 2.0
e 142 276 1.0
e 142 18 1.0
e 142 283 1.0
e 143 276 1.0
e 143 251 1.0
e 143 198 1.0
e 143 243 1.0
e 143 83 1.0
e 143 230 2.0
e 143 35 1.0
e 143 119 1.0
e 144 296 17.0
e 144 161 15.0
e 144 293 24.0
e 144 58 30.0
e 144 258 46.0
e 144 46 37.0
e 144 128 37.0
e 144 303 37.0
e 144 224 1.0
e 144 250 12.0
e 144 259 14.0
e 144 261 19.0
e 145 36 1.0
e 145 308 1.0
e 145 6 1.0
e 145 228 13.0
e 145 233 1.0
e 145 148 1.0
e 145 269 1.0
e 145 224 12.0
e 146 62 1.0
e 146 291 1.0
e 146 7 1.0
e 146 140 2.0
e 146 28 1.0
e 146 151 1.0
e 146 269 1.0
e 146 197 2.0
e 147 9 2.0
e 147 116 1.0
e 147 203 1.0
e 147 318 1.0
e 147 74 1.0
e 147 185 2.0
e 147 23 1.0
e 147 90 1.0
e 148 219 1.0
e 148 251 2.0
e 148 43 1.0
e 148 21 1.0
e 148 182 2.0
e 148 62 2.0
e 148 3 1.0
e 148 264 1.0
e 149 21 1.0
e 149 224 23.0
e 149 50 1.0
e 149 26 1.0
e 149 256 1.0
e 149 241 1.0
e 149 291 1.0
e 149 288 1.0
e 150 155 1.0
e 150 180 1.0
e 150 160 1.0
e 150 87 1.0
e 150 80 2.0
e 150 182 2.0
e 150 34 1.0
e 150 208 1.0
e 151 297 2.0
e 151 170 1.0
e 151 97 1.0
e 151 60 2.0
e 151 104 1.0
e 151 92 1.0
e 151 223 1.0
e 151 81 1.0
e 152 226 1.0
e 152 283 1.0
e 152 118 3.0
e 152 200 2.0
e 152 24 1.0
e 152 144 12.0
e 152 174 2.0
e 152 73 2.0
e 153 205 1.0
e 153 151 1.0
e 153 29 1.0
e 153 242 1.0
e 153 122 1.0
e 153 213 2.0
e 153 46 2.0
e 153 66 2.0
e 154 226 1.0
e 154 50 1.0
e 154 66 1.0
e 154 234 1.0
e 154 158 1.0
e 154 91 1.0
e 154 208 1.0
e 154 223 1.0
e 155 293 2.0
e 155 164 1.0
e 155 147 1.0
e 155 256 1.0
e 155 58 1.0
e 155 79 1.0
e 155 40 1.0
e 155 202 1.0
e 156 186 1.0
e 156 305 1.0
e 156 100 1.0
e 156 255 1.0
e 156 248 1.0
e 156 307 1.0
e 156 260 2.0
e 156 55 1.0
e 157 196 1.0
e 157 198 1.0
e 157 299 1.0
e 157 148 1.0
e 157 137 1.0
e 157 33 1.0
e 157 125 2.0
e 157 138 2.0
e 158 298 46.0
e 158 295 2.0
e 158 266 2.0
e 158 117 1.0
e 158 12 2.0
e 158 61 2.0
e 158 70 2.0
e 158 300 1.0
e 159 142 2.0
e 159 178 1.0
e 159 235 2.0
e 159 269 1.0
e 159 158 1.0
e 159 212 1.0
e 159 172 1.0
e 159 148 2.0
e 160 253 1.0
e 160 112 1.0
e 160 140 1.0
e 160 153 1.0
e 160 5 1.0
e 160 86 1.0
e 160 216 2.0
e 161 284 1.0
e 161 227 1.0
e 161 128 1.0
e 161 47 2.0
e 161 4 1.0
e 161 110 1.0
e 161 247 1.0
e 162 164 1.0
e 162 251 1.0
e 162 50 1.0
e 162 151 1.0
e 162 286 48.0
e 162 44 1.0
e 162 215 1.0
e 162 143 1.0
e 163 115 1.0
e 163 310 1.0
e 163 166 1.0
e 163 30 1.0
e 163 78 1.0
e 163 164 1.0
e 163 27 2.0
e 163 246 1.0
e 164 118 1.0
e 164 39 1.0
e 164 122 2.0
e 164 51 2.0
e 164 317 2.0
e 164 20 1.0
e 164 132 1.0
e 165 94 1.0
e 165 292 1.0
e 165 293 1.0
e 165 44 1.0
e 165 120 1.0
e 165 212 1.0
e 165 299 1.0
e 165 289 1.0
e 166 153 2.0
e 166 301 1.0
e 166 64 1.0
e 166 244 1.0
e 166 225 1.0
e 166 123 2.0
e 166 14 2.0
e 167 46 2.0
e 167 196 1.0
e 167 67 2.0
e 167 190 1.0
e 167 268 1.0
e 167 57 1.0
e 167 133 2.0
e 167 178 1.0
e 168 111 1.0
e 168 250 42.0
e 168 125 1.0
e 168 315 1.0
e 168 316 1.0
e 168 1 1.0
e 168 56 2.0
e 168 252 1.0
e 169 117 1.0
e 169 220 1.0
e 169 135 45.0
e 169 75 1.0
e 169 36 2.0
e 169 104 1.0
e 169 85 1.0
e 169 15 2.0
e 170 78 1.0
e 170 93 1.0
e 170 4 2.0
e 170 126 1.0
e 170 62 1.0
e 170 118 1.0
e 170 202 1.0
e 170 243 1.0
e 171 88 1.0
e 171 206 1.0
e 171 172 1.0
e 171 184 2.0
e 171 283 1.0
e 171 119 1.0
e 171 92 2.0
e 171 293 2.0
e 172 244 1.0
e 172 85 2.0
e 172 306 49.0
e 172 255 1.0
e 172 13 1.0
e 172 296 2.0
e 172 280 1.0
e 172 105 1.0
e 173 233 1.0
e 173 146 1.0
e 173 93 1.0
e 173 66 1.0
e 173 26 1.0
e 173 169 2.0
e 173 263 1.0
e 173 205 2.0
e 174 275 1.0
e 174 235 1.0
e 174 36 2.0
e 174 82 1.0
e 174 269 1.0
e 174 181 2.0
e 174 233 1.0
e 174 31 39.0
e 175 71 37.0
e 175 166 1.0
e 175 37 1.0
e 175 96 1.0
e 175 54 1.0
e 175 188 1.0
e 175 311 1.0
e 175 211 1.0
e 176 140 1.0
e 176 251 1.0
e 176 224 34.0
e 176 171 1.0
e 176 154 1.0
e 176 221 1.0
e 176 115 1.0
e 176 261 1.0
e 177 39 1.0
e 177 259 39.0
e 177 248 1.0
e 177 138 1.0
e 177 106 1.0
e 177 214 1.0
e 177 118 2.0
e 178 258 1.0
e 178 126 1.0
e 178 83 1.0
e 178 28 1.0
e 178 145 1.0
e 178 214 2.0
e 178 23 1.0
e 179 191 2.0
e 179 79 1.0
e 179 240 1.0
e 179 219 1.0
e 179 257 2.0
e 179 286 42.0
e 179 141 2.0
e 179 161 1.0
e 180 280 1.0
e 180 208 3.0
e 180 21 2.0
e 180 297 2.0
e 180 298 36.0
e 180 59 1.0
e 180 273 1.0
e 180 314 1.0
e 181 162 1.0
e 181 80 1.0
e 181 217 2.0
e 181 139 1.0
e 181 13 1.0
e 181 54 1.0
e 181 132 1.0
e 181 121 1.0
e 182 115 1.0
e 182 196 1.0
e 182 201 2.0
e 182 8 1.0
e 182 257 1.0
e 182 135 23.0
e 182 225 1.0
e 182 202 2.0
e 183 95 1.0
e 183 145 1.0
e 183 194 11.0
e 183 140 1.0
e 183 238 1.0
e 183 20 2.0
e 183 191 1.0
e 183 258 2.0
e 184 260 2.0
e 184 268 2.0
e 184 247 2.0
e 184 87 1.0
e 184 236 1.0
e 184 310 1.0
e 184 254 3.0
e 184 138 2.0
e 185 264 1.0
e 185 39 1.0
e 185 32 2.0
e 185 311 2.0
e 185 289 2.0
e 185 192 1.0
e 185 20 1.0
e 185 95 1.0
e 186 222 1.0
e 186 98 1.0
e 186 266 1.0
e 186 125 2.0
e 186 0 1.0
e 186 314 1.0
e 186 286 39.0
e 186 130 2.0
e 187 142 1.0
e 187 224 23.0
e 187 162 1.0
e 187 235 1.0
e 187 176 3.0
e 187 292 2.0
e 187 145 1.0
e 187 244 2.0
e 188 211 1.0
e 188 285 1.0
e 188 21 1.0
e 188 168 1.0
e 188 98 1.0
e 188 205 1.0
e 188 102 1.0
e 188 81 1.0
e 189 300 1.0
e 189 313 1.0
e 189 69 1.0
e 189 209 1.0
e 189 225 1.0
e 189 253 1.0
e 189 228 18.0
e 189 287 1.0
e 190 248 2.0
e 190 27 1.0
e 190 69 1.0
e 190 14 1.0
e 190 105 1.0
e 190 84 1.0
e 190 231 1.0
e 191 88 1.0
e 191 24 1.0
e 191 248 2.0
e 191 212 1.0
e 191 154 1.0
e 191 259 33.0
e 191 281 32.0
e 191 308 1.0
e 192 139 1.0
e 192 151 1.0
e 192 27 2.0
e 192 195 1.0
e 192 102 1.0
e 192 154 1.0
e 192 159 1.0
e 192 138 1.0
e 193 290 1.0
e 193 259 45.0
e 193 176 1.0
e 193 169 1.0
e 193 69 1.0
e 193 279 1.0
e 193 242 1.0
e 193 277 1.0
e 194 236 23.0
e 194 184 3.0
e 194 296 23.0
e 194 202 48.0
e 194 122 2.0
e 194 10 19.0
e 194 249 42.0
e 194 58 23.0
e 195 312 1.0
e 195 108 49.0
e 195 272 2.0
e 195 149 1.0
e 195 21 1.0
e 195 283 2.0
e 195 244 1.0
e 195 302 2.0
e 196 125 1.0
e 196 19 1.0
e 196 27 2.0
e 196 24 1.0
e 196 46 1.0
e 196 38 1.0
e 196 271 1.0
e 196 71 25.0
e 197 160 2.0
e 197 316 2.0
e 197 157 2.0
e 197 193 1.0
e 197 154 1.0
e 197 120 2.0
e 197 276 1.0
e 197 234 1.0
e 198 295 2.0
e 198 127 1.0
e 198 53 2.0
e 198 8 3.0
e 198 133 1.0
e 198 234 2.0
e 198 290 1.0
e 198 132 1.0
e 199 188 1.0
e 199 219 1.0
e 199 33 3.0
e 199 52 1.0
e 199 9 2.0
e 199 182 1.0
e 199 281 46.0
e 199 78 1.0
e 200 282 1.0
e 200 61 1.0
e 200 20 1.0
e 200 37 1.0
e 200 247 2.0
e 200 168 2.0
e 200 207 3.0
e 200 79 2.0
e 201 212 2.0
e 201 153 1.0
e 201 208 1.0
e 201 278 22.0
e 201 302 1.0
e 201 264 2.0
e 201 41 2.0
e 201 317 2.0
e 202 212 1.0
e 202 7 1.0
e 202 64 1.0
e 202 116 1.0
e 202 71 16.0
e 202 311 1.0
e 202 29 1.0
e 202 278 32.0
e 203 68 1.0
e 203 313 2.0
e 203 39 2.0
e 203 219 1.0
e 203 109 1.0
e 203 291 1.0
e 203 171 2.0
e 203 130 2.0
e 204 199 2.0
e 204 72 1.0
e 204 80 1.0
e 204 118 2.0
e 204 314 1.0
e 204 7 1.0
e 204 157 2.0
e 204 192 2.0
e 205 69 1.0
e 205 136 1.0
e 205 55 1.0
e 205 259 24.0
e 205 79 1.0
e 205 22 1.0
e 205 116 1.0
e 205 108 48.0
e 206 257 1.0
e 206 311 1.0
e 206 41 1.0
e 206 181 1.0
e 206 32 1.0
e 206 16 1.0
e 206 158 2.0
e 206 165 1.0
e 207 92 2.0
e 207 103 2.0
e 207 83 1.0
e 207 306 9.0
e 207 278 9.0
e 207 175 1.0
e 207 269 1.0
e 207 251 1.0
e 208 190 1.0
e 208 316 1.0
e 208 224 35.0
e 208 105 1.0
e 208 182 3.0
e 208 304 2.0
e 208 126 1.0
e 208 59 1.0
e 209 195 1.0
e 209 83 1.0
e 209 137 1.0
e 209 108 41.0
e 209 144 37.0
e 209 74 1.0
e 209 234 1.0
e 209 190 1.0
e 210 69 1.0
e 210 100 1.0
e 210 216 1.0
e 210 191 1.0
e 210 96 1.0
e 210 182 2.0
e 210 112 1.0
e 210 263 2.0
e 211 20 1.0
e 211 5 2.0
e 211 231 1.0
e 211 14 2.0
e 211 123 2.0
e 211 214 1.0
e 211 291 2.0
e 212 195 1.0
e 212 262 1.0
e 212 143 1.0
e 212 220 1.0
e 212 51 2.0
e 212 73 1.0
e 212 66 1.0
e 212 117 1.0
e 213 116 1.0
e 213 4 1.0
e 213 44 1.0
e 213 194 30.0
e 213 136 1.0
e 213 54 2.0
e 213 212 1.0
e 213 300 1.0
e 214 66 2.0
e 214 298 41.0
e 214 196 1.0
e 214 32 1.0
e 214 140 1.0
e 214 317 1.0
e 214 200 1.0
e 214 5 3.0
e 215 53 1.0
e 215 184 1.0
e 215 20 1.0
e 215 68 1.0
e 215 112 2.0
e 215 83 1.0
e 215 223 1.0
e 215 307 1.0
e 216 252 1.0
e 216 303 1.0
e 216 298 48.0
e 216 15 2.0
e 216 125 1.0
e 216 163 1.0
e 216 109 2.0
e 216 268 1.0
e 217 31 45.0
e 217 147 1.0
e 217 308 1.0
e 217 97 1.0
e 217 257 1.0
e 217 151 1.0
e 217 260 3.0
e 218 61 1.0
e 218 158 1.0
e 218 254 1.0
e 218 245 2.0
e 218 129 1.0
e 218 88 3.0
e 218 147 1.0
e 218 272 1.0
e 219 114 1.0
e 219 35 1.0
e 219 177 2.0
e 219 265 28.0
e 219 69 1.0
e 219 237 1.0
e 219 135 29.0
e 219 154 1.0
e 220 308 1.0
e 220 82 1.0
e 220 161 1.0
e 220 243 1.0
e 220 271 1.0
e 220 316 1.0
e 220 11 1.0
e 220 237 1.0
e 221 168 1.0
e 221 249 1.0
e 221 297 1.0
e 221 317 1.0
e 221 229 1.0
e 221 49 1.0
e 221 92 1.0
e 221 77 1.0
e 222 143 1.0
e 222 246 1.0
e 222 267 1.0
e 222 232 1.0
e 222 277 2.0
e 222 92 1.0
e 222 295 1.0
e 222 251 1.0
e 223 77 1.0
e 223 98 1.0
e 223 71 7.0
e 223 144 32.0
e 223 199 1.0
e 223 204 1.0
e 223 258 1.0
e 223 298 14.0
e 224 16 40.0
e 224 218 8.0
e 224 59 48.0
e 224 222 14.0
e 224 130 48.0
e 224 204 33.0
e 224 141 35.0
e 224 213 36.0
e 225 92 1.0
e 225 244 1.0
e 225 266 1.0
e 225 117 3.0
e 225 126 1.0
e 225 318 1.0
e 225 256 1.0
e 226 139 2.0
e 226 40 1.0
e 226 239 1.0
e 226 178 1.0
e 226 81 1.0
e 226 29 1.0
e 226 170 2.0
e 226 2 46.0
e 227 194 31.0
e 227 315 2.0
e 227 39 1.0
e 227 110 1.0
e 227 237 2.0
e 227 133 1.0
e 227 31 3.0
e 227 153 2.0
e 228 157 10.0
e 228 270 22.0
e 228 21 36.0
e 228 307 47.0
e 228 174 33.0
e 228 70 39.0
e 228 283 33.0
e 228 135 12.0
e 228 144 16.0
e 228 224 7.0
e 229 166 1.0
e 229 237 1.0
e 229 238 1.0
e 229 20 1.0
e 229 222 1.0
e 229 2 25.0
e 229 151 1.0
e 229 256 1.0
e 230 302 1.0
e 230 163 2.0
e 230 187 1.0
e 230 228 32.0
e 230 226 2.0
e 230 315 1.0
e 230 72 1.0
e 230 44 1.0
e 231 316 3.0
e 231 178 1.0
e 231 103 2.0
e 231 207 1.0
e 231 21 1.0
e 231 71 20.0
e 231 24 1.0
e 231 85 1.0
e 232 129 1.0
e 232 106 1.0
e 232 250 37.0
e 232 27 3.0
e 232 2 21.0
e 232 307 2.0
e 232 188 1.0
e 232 221 1.0
e 233 147 1.0
e 233 220 1.0
e 233 191 1.0
e 233 165 1.0
e 233 159 1.0
e 233 61 1.0
e 233 52 1.0
e 233 139 1.0
e 234 177 1.0
e 234 89 2.0
e 234 92 1.0
e 234 205 1.0
e 234 287 1.0
e 234 140 1.0
e 234 70 1.0
e 234 133 1.0
e 235 296 1.0
e 235 132 3.0
e 235 30 1.0
e 235 25 18.0
e 235 134 2.0
e 235 3 1.0
e 235 42 1.0
e 235 130 1.0
e 236 186 1.0
e 236 113 3.0
e 236 153 1.0
e 236 136 1.0
e 236 93 1.0
e 236 91 1.0
e 236 43 2.0
e 236 25 43.0
e 237 36 1.0
e 237 100 1.0
e 237 200 1.0
e 237 0 1.0
e 237 275 1.0
e 237 251 2.0
e 237 111 1.0
e 237 125 1.0
e 238 215 3.0
e 238 153 1.0
e 238 305 1.0
e 238 75 1.0
e 238 210 1.0
e 238 102 1.0
e 238 30 1.0
e 238 252 1.0
e 239 140 2.0
e 239 26 1.0
e 239 99 2.0
e 239 167 2.0
e 239 32 1.0
e 239 24 1.0
e 239 60 1.0
e 239 40 1.0
e 240 254 1.0
e 240 116 1.0
e 240 122 2.0
e 240 114 1.0
e 240 21 1.0
e 240 16 1.0
e 240 58 1.0
e 240 124 2.0
e 241 62 1.0
e 241 127 2.0
e 241 67 1.0
e 241 266 1.0
e 241 186 2.0
e 241 305 2.0
e 241 249 2.0
e 241 269 1.0
e 242 64 1.0
e 242 118 2.0
e 242 210 1.0
e 242 234 1.0
e 242 298 45.0
e 242 97 1.0
e 242 226 1.0
e 243 156 1.0
e 243 137 1.0
e 243 113 1.0
e 243 151 1.0
e 243 127 1.0
e 243 45 1.0
e 243 233 1.0
e 244 218 1.0
e 244 306 15.0
e 244 9 3.0
e 244 176 1.0
e 244 69 2.0
e 244 303 2.0
e 244 11 1.0
e 244 149 2.0
e 245 15 1.0
e 245 30 1.0
e 245 285 1.0
e 245 47 2.0
e 245 131 1.0
e 245 106 1.0
e 245 48 1.0
e 245 207 1.0
e 246 202 1.0
e 246 256 1.0
e 246 153 2.0
e 246 265 9.0
e 246 225 1.0
e 246 194 2.0
e 246 141 1.0
e 246 7 1.0
e 247 32 2.0
e 247 137 1.0
e 247 172 2.0
e 247 312 1.0
e 247 152 1.0
e 247 148 2.0
e 247 258 1.0
e 247 154 1.0
e 248 214 1.0
e 248 38 2.0
e 248 216 1.0
e 248 298 29.0
e 248 121 2.0
e 248 293 1.0
e 248 249 2.0
e 248 123 1.0
e 249 74 1.0
e 249 130 1.0
e 249 116 1.0
e 249 77 1.0
e 249 212 1.0
e 249 228 44.0
e 249 92 2.0
e 249 271 1.0
e 250 162 17.0
e 250 316 11.0
e 250 62 48.0
e 250 252 42.0
e 250 245 31.0
e 250 12 42.0
e 250 98 7.0
e 250 136 11.0
e 250 265 41.0
e 250 259 36.0
e 250 71 7.0
e 251 292 1.0
e 251 140 1.0
e 251 27 1.0
e 251 182 1.0
e 251 307 1.0
e 251 201 2.0
e 251 16 1.0
e 251 313 1.0
e 252 188 1.0
e 252 128 1.0
e 252 60 2.0
e 252 193 1.0
e 252 232 1.0
e 252 160 1.0
e 252 296 1.0
e 252 274 1.0
e 253 277 1.0
e 253 247 1.0
e 253 287 1.0
e 253 30 1.0
e 253 305 1.0
e 253 177 2.0
e 253 91 3.0
e 253 256 1.0
e 254 193 1.0
e 254 231 1.0
e 254 206 1.0
e 254 315 3.0
e 254 180 2.0
e 254 248 1.0
e 255 148 3.0
e 255 33 1.0
e 255 8 1.0
e 255 27 2.0
e 255 67 1.0
e 255 287 1.0
e 255 22 1.0
e 256 136 1.0
e 256 217 2.0
e 256 247 1.0
e 256 41 1.0
e 256 1 1.0
e 256 143 1.0
e 256 79 1.0
e 256 154 1.0
e 257 153 2.0
e 257 94 1.0
e 257 221 2.0
e 257 6 3.0
e 257 157 1.0
e 257 163 2.0
e 257 238 1.0
e 257 46 1.0
e 258 280 2.0
e 258 135 40.0
e 258 300 1.0
e 258 167 1.0
e 258 57 1.0
e 258 168 1.0
e 258 175 1.0
e 258 166 1.0
e 259 80 1.0
e 259 185 1.0
e 259 237 11.0
e 259 290 14.0
e 259 79 37.0
e 259 107 33.0
e 259 143 35.0
e 259 257 47.0
e 260 309 1.0
e 260 199 2.0
e 260 108 49.0
e 260 67 2.0
e 260 227 1.0
e 260 155 1.0
e 260 262 1.0
e 260 94 1.0
e 261 193 20.0
e 261 200 35.0
e 261 291 10.0
e 261 231 49.0
e 261 131 45.0
e 261 84 38.0
e 261 29 30.0
e 261 25 17.0
e 261 265 40.0
e 262 96 1.0
e 262 314 1.0
e 262 106 1.0
e 262 198 1.0
e 262 113 2.0
e 262 196 1.0
e 262 61 1.0
e 262 32 1.0
e 263 58 2.0
e 263 211 1.0
e 263 212 1.0
e 263 129 2.0
e 263 299 1.0
e 263 261 9.0
e 263 188 1.0
e 263 123 2.0
e 264 48 1.0
e 264 70 1.0
e 264 189 1.0
e 264 301 1.0
e 264 262 1.0
e 264 1 1.0
e 264 244 2.0
e 264 0 1.0
e 265 40 9.0
e 265 168 45.0
e 265 234 29.0
e 265 290 43.0
e 265 223 47.0
e 265 114 11.0
e 265 281 8.0
e 265 275 15.0
e 265 63 17.0
e 266 170 1.0
e 266 20 2.0
e 266 122 1.0
e 266 202 1.0
e 266 32 1.0
e 266 161 2.0
e 266 10 1.0
e 267 112 2.0
e 267 1 1.0
e 267 103 1.0
e 267 2 44.0
e 267 266 1.0
e 267 162 1.0
e 267 191 1.0
e 268 13 2.0
e 268 157 2.0
e 268 60 1.0
e 268 27 1.0
e 268 71 26.0
e 268 153 1.0
e 268 162 1.0
e 268 128 1.0
e 269 264 1.0
e 269 222 1.0
e 269 74 1.0
e 269 271 3.0
e 269 312 1.0
e 269 77 1.0
e 269 112 1.0
e 269 206 1.0
e 270 89 1.0
e 270 284 1.0
e 270 318 1.0
e 270 180 1.0
e 270 313 1.0
e 270 238 1.0
e 270 261 34.0
e 270 99 1.0
e 271 207 1.0
e 271 315 2.0
e 271 316 2.0
e 271 291 1.0
e 271 34 3.0
e 271 3 2.0
e 271 0 3.0
e 271 81 1.0
e 272 263 1.0
e 272 141 1.0
e 272 47 2.0
e 272 28 1.0
e 272 184 1.0
e 272 279 1.0
e 272 126 1.0
e 272 245 2.0
e 273 101 2.0
e 273 12 1.0
e 273 45 1.0
e 273 27 1.0
e 273 260 3.0
e 273 310 1.0
e 273 213 1.0
e 273 132 1.0
e 274 297 1.0
e 274 134 1.0
e 274 14 1.0
e 274 318 1.0
e 274 314 1.0
e 274 190 1.0
e 274 70 1.0
e 274 172 3.0
e 275 10 1.0
e 275 238 1.0
e 275 208 2.0
e 275 273 1.0
e 275 55 2.0
e 275 3 1.0
e 275 162 3.0
e 275 64 1.0
e 276 25 31.0
e 276 123 1.0
e 276 298 39.0
e 276 99 2.0
e 276 262 1.0
e 276 133 1.0
e 276 270 1.0
e 276 222 1.0
e 277 22 1.0
e 277 34 1.0
e 277 206 1.0
e 277 142 2.0
e 277 229 1.0
e 277 194 24.0
e 277 284 1.0
e 277 178 2.0
e 278 300 3.0
e 278 149 4.0
e 278 164 25.0
e 278 302 25.0
e 278 99 13.0
e 278 61 43.0
e 278 81 20.0
e 278 2 12.0
e 279 16 2.0
e 279 144 40.0
e 279 210 1.0
e 279 182 1.0
e 279 254 1.0
e 279 308 3.0
e 279 128 2.0
e 279 126 2.0
e 280 85 1.0
e 280 120 2.0
e 280 287 2.0
e 280 190 2.0
e 280 90 1.0
e 280 283 1.0
e 280 272 1.0
e 281 153 37.0
e 281 222 15.0
e 281 197 14.0
e 281 60 44.0
e 281 79 27.0
e 281 167 25.0
e 281 271 10.0
e 281 20 10.0
e 281 224 44.0
e 281 228 48.0
e 281 250 25.0
e 282 306 39.0
e 282 270 2.0
e 282 268 2.0
e 282 299 1.0
e 282 139 1.0
e 282 184 1.0
e 282 7 1.0
e 282 100 1.0
e 283 92 1.0
e 283 297 1.0
e 283 182 1.0
e 283 131 2.0
e 283 144 48.0
e 283 114 1.0
e 283 115 1.0
e 284 191 1.0
e 284 229 1.0
e 284 116 1.0
e 284 157 2.0
e 284 34 1.0
e 284 75 1.0
e 284 261 46.0
e 285 223 1.0
e 285 228 38.0
e 285 280 3.0
e 285 40 1.0
e 285 115 1.0
e 285 299 3.0
e 285 135 19.0
e 285 104 1.0
e 286 281 29.0
e 286 315 21.0
e 286 77 12.0
e 286 252 48.0
e 286 89 32.0
e 286 59 25.0
e 286 5 2.0
e 286 35 24.0
e 286 63 5.0
e 286 71 24.0
e 287 121 1.0
e 287 245 1.0
e 287 217 1.0
e 287 214 1.0
e 287 291 1.0
e 287 152 1.0
e 287 213 1.0
e 287 183 1.0
e 288 35 1.0
e 288 213 2.0
e 288 127 1.0
e 288 140 1.0
e 288 264 2.0
e 288 177 2.0
e 288 16 1.0
e 289 60 3.0
e 289 62 1.0
e 289 284 1.0
e 289 298 29.0
e 289 194 26.0
e 289 204 1.0
e 289 145 1.0
e 289 75 1.0
e 290 43 1.0
e 290 42 1.0
e 290 201 1.0
e 290 230 2.0
e 290 235 1.0
e 290 64 1.0
e 290 136 1.0
e 290 277 1.0
e 291 308 1.0
e 291 120 1.0
e 291 32 1.0
e 291 113 1.0
e 291 312 1.0
e 291 31 44.0
e 291 305 1.0
e 291 177 2.0
e 292 275 2.0
e 292 92 1.0
e 292 201 2.0
e 292 129 1.0
e 292 49 1.0
e 292 237 1.0
e 292 138 1.0
e 292 44 1.0
e 293 33 2.0
e 293 198 1.0
e 293 287 2.0
e 293 107 1.0
e 293 47 2.0
e 293 195 1.0
e 293 152 1.0
e 293 34 1.0
e 294 60 1.0
e 294 171 1.0
e 294 211 2.0
e 294 35 1.0
e 294 169 1.0
e 294 114 1.0
e 294 172 1.0
e 294 111 1.0
e 295 16 2.0
e 295 30 2.0
e 295 108 28.0
e 295 210 1.0
e 295 40 1.0
e 295 142 1.0
e 295 52 1.0
e 296 231 1.0
e 296 232 1.0
e 296 226 1.0
e 296 116 1.0
e 296 157 1.0
e 296 124 1.0
e 296 284 1.0
e 296 229 1.0
e 297 196 2.0
e 297 197 2.0
e 297 114 1.0
e 297 58 1.0
e 297 14 1.0
e 297 152 1.0
e 297 157 1.0
e 297 49 2.0
e 298 169 16.0
e 298 288 47.0
e 298 108 35.0
e 298 175 35.0
e 298 194 15.0
e 298 46 35.0
e 298 222 49.0
e 298 118 29.0
e 299 113 1.0
e 299 298 7.0
e 299 270 2.0
e 299 172 1.0
e 299 41 1.0
e 299 264 1.0
e 299 215 2.0
e 299 314 2.0
e 300 156 1.0
e 300 194 27.0
e 300 180 1.0
e 300 61 1.0
e 300 244 1.0
e 300 264 1.0
e 300 240 1.0
e 300 37 1.0
e 301 15 1.0
e 301 69 1.0
e 301 120 1.0
e 301 176 1.0
e 301 90 1.0
e 301 28 1.0
e 301 59 1.0
e 301 139 1.0
e 302 221 2.0
e 302 309 2.0
e 302 121 2.0
e 302 244 2.0
e 302 98 1.0
e 302 318 1.0
e 302 109 2.0
e 303 78 2.0
e 303 67 1.0
e 303 253 1.0
e 303 100 2.0
e 303 125 1.0
e 303 61 1.0
e 303 199 1.0
e 303 21 1.0
e 304 258 1.0
e 304 253 1.0
e 304 23 1.0
e 304 31 19.0
e 304 148 3.0
e 304 36 1.0
e 304 12 2.0
e 304 35 2.0
e 305 118 1.0
e 305 301 1.0
e 305 164 1.0
e 305 178 1.0
e 305 235 1.0
e 305 257 1.0
e 305 158 1.0
e 305 270 1.0
e 306 137 15.0
e 306 303 45.0
e 306 222 24.0
e 306 101 18.0
e 306 13 6.0
e 306 78 28.0
e 306 149 13.0
e 306 92 5.0
e 307 169 1.0
e 307 271 1.0
e 307 205 1.0
e 307 36 2.0
e 307 225 1.0
e 307 308 1.0
e 307 245 2.0
e 308 130 1.0
e 308 213 1.0
e 308 315 1.0
e 308 284 1.0
e 308 93 1.0
e 308 81 1.0
e 308 132 1.0
e 309 233 1.0
e 309 220 1.0
e 309 251 1.0
e 309 303 2.0
e 309 123 1.0
e 309 192 2.0
e 309 11 1.0
e 309 135 14.0
e 310 170 1.0
e 310 91 1.0
e 310 262 1.0
e 310 43 1.0
e 310 11 1.0
e 310 65 1.0
e 310 35 1.0
e 310 68 1.0
e 311 240 1.0
e 311 133 1.0
e 311 65 1.0
e 311 102 1.0
e 311 235 2.0
e 311 50 1.0
e 311 45 1.0
e 312 217 1.0
e 312 252 1.0
e 312 180 2.0
e 312 169 1.0
e 312 218 1.0
e 312 4 1.0
e 312 81 1.0
e 313 280 1.0
e 313 21 1.0
e 313 24 1.0
e 313 268 1.0
e 313 231 1.0
e 313 216 1.0
e 313 296 1.0
e 313 258 1.0
e 314 251 2.0
e 314 259 15.0
e 314 52 1.0
e 314 82 1.0
e 314 50 2.0
e 314 106 1.0
e 314 188 1.0
e 314 210 1.0
e 315 211 2.0
e 315 105 2.0
e 315 116 2.0
e 315 311 1.0
e 315 301 2.0
e 315 204 1.0
e 316 212 1.0
e 316 257 1.0
e 316 46 2.0
e 316 59 1.0
e 316 213 1.0
e 316 255 1.0
e 316 110 1.0
e 317 197 1.0
e 317 170 1.0
e 317 243 1.0
e 317 127 1.0
e 317 56 1.0
e 317 55 1.0
e 317 16 2.0
e 317 194 12.0
e 318 131 1.0
e 318 277 1.0
e 318 262 1.0
e 318 29 1.0
e 318 188 1.0
e 318 203 1.0
e 318 308 1.0
e 318 301 1.0
e 319 94 1.0
e 319 102 1.0
e 319 212 1.0
e 319 138 1.0
e 319 183 1.0
e 319 307 1.0
e 319 235 2.0
e 319 57 1.0
